p cnf 72 2
-46 -69 -38 -29 -49 -59 -11 -8 -51 -7 -52 -1 -67 -44 -20 -30 -48 -10 -31 -45 -12 -55 -64 -62 -19 -54 -57 -42 -65 -23 -71 -6 -41 -33 -17 -60 -40 -58 -35 -5 -13 1 2 3 5 6 7 8 9 10 11 12 13 14 17 19 20 21 22 23 24 25 26 27 28 29 30 31 32 33 34 35 36 38 39 40 41 42 43 44 45 46 47 48 49 51 52 53 54 55 56 57 58 59 60 61 62 63 64 65 67 68 69 71 72 0
-19 -30 -25 -43 -53 -58 -35 -3 -13 -1 1 33 67 3 35 40 43 13 19 53 25 58 30 0
